25 55
52 41
61 33
58 27
48 28
45 35
42 41
30 48
16 57
5 64
8 52
12 42
21 47
52 64
63 69
62 63
57 58
43 67
42 57
49 49
37 52
38 46
30 40
32 39
7 38
17 33
20 26
36 16
30 15
13 13
10 17
5 6
21 10
39 10
46 10
59 15
51 21
48 28
40 30
31 32
25 32
27 23
32 22
52 33
56 37
62 42
58 48
42 57
31 62
27 68
17 63
25 55
